302 10
3 3 3 3 3 3 3 3 3 3
0  0 0 0 0 0 0 0 0 0 0  30 2 12 22 32 42 52 62 72 82 92 102 112 122 132 142 152 162 172 182 192 202 212 222 232 242 252 262 272 282 292
44  0 0 1 0 0 0 0 0 0 0  1 3
5  0 0 0 1 0 0 0 0 0 0  1 4
58  0 0 0 0 0 1 0 0 0 0  1 5
97  0 0 0 0 1 0 0 0 0 0  1 6
9  1 0 0 0 0 0 0 0 0 0  1 7
84  0 0 0 0 0 0 0 1 0 0  1 8
77  0 0 0 0 0 0 0 0 1 0  1 9
96  0 0 0 0 0 0 0 0 0 1  1 10
58  0 1 0 0 0 0 0 0 0 0  1 11
89  0 0 0 0 0 0 1 0 0 0  1 302
15  0 0 0 0 1 0 0 0 0 0  1 13
31  0 0 0 0 0 0 0 1 0 0  1 14
87  0 1 0 0 0 0 0 0 0 0  1 15
57  0 0 0 0 0 0 0 0 1 0  1 16
77  1 0 0 0 0 0 0 0 0 0  1 17
85  0 0 0 1 0 0 0 0 0 0  1 18
81  0 0 1 0 0 0 0 0 0 0  1 19
39  0 0 0 0 0 1 0 0 0 0  1 20
73  0 0 0 0 0 0 0 0 0 1  1 21
21  0 0 0 0 0 0 1 0 0 0  1 302
82  0 0 0 0 0 0 0 0 0 1  1 23
22  0 0 0 0 0 0 1 0 0 0  1 24
10  0 0 0 0 1 0 0 0 0 0  1 25
70  0 0 0 1 0 0 0 0 0 0  1 26
49  0 1 0 0 0 0 0 0 0 0  1 27
40  1 0 0 0 0 0 0 0 0 0  1 28
34  0 0 0 0 0 0 0 0 1 0  1 29
48  0 0 1 0 0 0 0 0 0 0  1 30
80  0 0 0 0 0 0 0 1 0 0  1 31
71  0 0 0 0 0 1 0 0 0 0  1 302
91  0 1 0 0 0 0 0 0 0 0  1 33
17  0 0 1 0 0 0 0 0 0 0  1 34
62  0 0 0 0 0 0 0 1 0 0  1 35
75  0 0 0 0 0 1 0 0 0 0  1 36
47  0 0 0 0 0 0 0 0 1 0  1 37
11  0 0 0 0 1 0 0 0 0 0  1 38
7  0 0 0 1 0 0 0 0 0 0  1 39
72  0 0 0 0 0 0 1 0 0 0  1 40
35  0 0 0 0 0 0 0 0 0 1  1 41
55  1 0 0 0 0 0 0 0 0 0  1 302
71  0 0 0 0 0 0 1 0 0 0  1 43
90  0 1 0 0 0 0 0 0 0 0  1 44
75  0 0 0 1 0 0 0 0 0 0  1 45
64  1 0 0 0 0 0 0 0 0 0  1 46
94  0 0 1 0 0 0 0 0 0 0  1 47
15  0 0 0 0 0 0 0 0 1 0  1 48
12  0 0 0 0 1 0 0 0 0 0  1 49
67  0 0 0 0 0 0 0 1 0 0  1 50
20  0 0 0 0 0 0 0 0 0 1  1 51
50  0 0 0 0 0 1 0 0 0 0  1 302
70  0 0 0 0 0 0 0 1 0 0  1 53
93  0 0 0 0 0 1 0 0 0 0  1 54
77  0 0 0 0 0 0 0 0 1 0  1 55
29  0 0 1 0 0 0 0 0 0 0  1 56
58  0 0 0 0 1 0 0 0 0 0  1 57
93  0 0 0 0 0 0 1 0 0 0  1 58
68  0 0 0 1 0 0 0 0 0 0  1 59
57  0 1 0 0 0 0 0 0 0 0  1 60
7  0 0 0 0 0 0 0 0 0 1  1 61
52  1 0 0 0 0 0 0 0 0 0  1 302
87  0 0 0 0 0 0 1 0 0 0  1 63
63  0 1 0 0 0 0 0 0 0 0  1 64
26  0 0 0 0 1 0 0 0 0 0  1 65
6  0 0 0 0 0 1 0 0 0 0  1 66
82  0 0 1 0 0 0 0 0 0 0  1 67
27  0 0 0 1 0 0 0 0 0 0  1 68
56  0 0 0 0 0 0 0 1 0 0  1 69
48  0 0 0 0 0 0 0 0 1 0  1 70
36  0 0 0 0 0 0 0 0 0 1  1 71
95  1 0 0 0 0 0 0 0 0 0  1 302
36  1 0 0 0 0 0 0 0 0 0  1 73
15  0 0 0 0 0 1 0 0 0 0  1 74
41  0 0 0 0 0 0 0 0 1 0  1 75
78  0 0 0 0 0 0 0 0 0 1  1 76
76  0 0 0 1 0 0 0 0 0 0  1 77
84  0 0 0 0 0 0 1 0 0 0  1 78
30  0 0 0 0 1 0 0 0 0 0  1 79
76  0 0 0 0 0 0 0 1 0 0  1 80
36  0 0 1 0 0 0 0 0 0 0  1 81
8  0 1 0 0 0 0 0 0 0 0  1 302
88  0 0 0 0 0 1 0 0 0 0  1 83
81  0 0 1 0 0 0 0 0 0 0  1 84
13  0 0 0 1 0 0 0 0 0 0  1 85
82  0 0 0 0 0 0 1 0 0 0  1 86
54  0 0 0 0 1 0 0 0 0 0  1 87
13  0 0 0 0 0 0 0 1 0 0  1 88
29  0 0 0 0 0 0 0 0 1 0  1 89
40  0 0 0 0 0 0 0 0 0 1  1 90
78  0 1 0 0 0 0 0 0 0 0  1 91
75  1 0 0 0 0 0 0 0 0 0  1 302
88  0 0 0 0 0 0 0 0 0 1  1 93
54  0 0 0 0 1 0 0 0 0 0  1 94
64  0 0 0 0 0 0 1 0 0 0  1 95
32  0 0 0 0 0 0 0 1 0 0  1 96
52  1 0 0 0 0 0 0 0 0 0  1 97
6  0 0 1 0 0 0 0 0 0 0  1 98
54  0 0 0 0 0 0 0 0 1 0  1 99
82  0 0 0 0 0 1 0 0 0 0  1 100
6  0 0 0 1 0 0 0 0 0 0  1 101
26  0 1 0 0 0 0 0 0 0 0  1 302
44  0 0 1 0 0 0 0 0 0 0  1 103
5  0 0 0 1 0 0 0 0 0 0  1 104
58  0 0 0 0 0 1 0 0 0 0  1 105
97  0 0 0 0 1 0 0 0 0 0  1 106
9  1 0 0 0 0 0 0 0 0 0  1 107
84  0 0 0 0 0 0 0 1 0 0  1 108
77  0 0 0 0 0 0 0 0 1 0  1 109
96  0 0 0 0 0 0 0 0 0 1  1 110
58  0 1 0 0 0 0 0 0 0 0  1 111
89  0 0 0 0 0 0 1 0 0 0  1 302
15  0 0 0 0 1 0 0 0 0 0  1 113
31  0 0 0 0 0 0 0 1 0 0  1 114
87  0 1 0 0 0 0 0 0 0 0  1 115
57  0 0 0 0 0 0 0 0 1 0  1 116
77  1 0 0 0 0 0 0 0 0 0  1 117
85  0 0 0 1 0 0 0 0 0 0  1 118
81  0 0 1 0 0 0 0 0 0 0  1 119
39  0 0 0 0 0 1 0 0 0 0  1 120
73  0 0 0 0 0 0 0 0 0 1  1 121
21  0 0 0 0 0 0 1 0 0 0  1 302
82  0 0 0 0 0 0 0 0 0 1  1 123
22  0 0 0 0 0 0 1 0 0 0  1 124
10  0 0 0 0 1 0 0 0 0 0  1 125
70  0 0 0 1 0 0 0 0 0 0  1 126
49  0 1 0 0 0 0 0 0 0 0  1 127
40  1 0 0 0 0 0 0 0 0 0  1 128
34  0 0 0 0 0 0 0 0 1 0  1 129
48  0 0 1 0 0 0 0 0 0 0  1 130
80  0 0 0 0 0 0 0 1 0 0  1 131
71  0 0 0 0 0 1 0 0 0 0  1 302
91  0 1 0 0 0 0 0 0 0 0  1 133
17  0 0 1 0 0 0 0 0 0 0  1 134
62  0 0 0 0 0 0 0 1 0 0  1 135
75  0 0 0 0 0 1 0 0 0 0  1 136
47  0 0 0 0 0 0 0 0 1 0  1 137
11  0 0 0 0 1 0 0 0 0 0  1 138
7  0 0 0 1 0 0 0 0 0 0  1 139
72  0 0 0 0 0 0 1 0 0 0  1 140
35  0 0 0 0 0 0 0 0 0 1  1 141
55  1 0 0 0 0 0 0 0 0 0  1 302
71  0 0 0 0 0 0 1 0 0 0  1 143
90  0 1 0 0 0 0 0 0 0 0  1 144
75  0 0 0 1 0 0 0 0 0 0  1 145
64  1 0 0 0 0 0 0 0 0 0  1 146
94  0 0 1 0 0 0 0 0 0 0  1 147
15  0 0 0 0 0 0 0 0 1 0  1 148
12  0 0 0 0 1 0 0 0 0 0  1 149
67  0 0 0 0 0 0 0 1 0 0  1 150
20  0 0 0 0 0 0 0 0 0 1  1 151
50  0 0 0 0 0 1 0 0 0 0  1 302
70  0 0 0 0 0 0 0 1 0 0  1 153
93  0 0 0 0 0 1 0 0 0 0  1 154
77  0 0 0 0 0 0 0 0 1 0  1 155
29  0 0 1 0 0 0 0 0 0 0  1 156
58  0 0 0 0 1 0 0 0 0 0  1 157
93  0 0 0 0 0 0 1 0 0 0  1 158
68  0 0 0 1 0 0 0 0 0 0  1 159
57  0 1 0 0 0 0 0 0 0 0  1 160
7  0 0 0 0 0 0 0 0 0 1  1 161
52  1 0 0 0 0 0 0 0 0 0  1 302
87  0 0 0 0 0 0 1 0 0 0  1 163
63  0 1 0 0 0 0 0 0 0 0  1 164
26  0 0 0 0 1 0 0 0 0 0  1 165
6  0 0 0 0 0 1 0 0 0 0  1 166
82  0 0 1 0 0 0 0 0 0 0  1 167
27  0 0 0 1 0 0 0 0 0 0  1 168
56  0 0 0 0 0 0 0 1 0 0  1 169
48  0 0 0 0 0 0 0 0 1 0  1 170
36  0 0 0 0 0 0 0 0 0 1  1 171
95  1 0 0 0 0 0 0 0 0 0  1 302
36  1 0 0 0 0 0 0 0 0 0  1 173
15  0 0 0 0 0 1 0 0 0 0  1 174
41  0 0 0 0 0 0 0 0 1 0  1 175
78  0 0 0 0 0 0 0 0 0 1  1 176
76  0 0 0 1 0 0 0 0 0 0  1 177
84  0 0 0 0 0 0 1 0 0 0  1 178
30  0 0 0 0 1 0 0 0 0 0  1 179
76  0 0 0 0 0 0 0 1 0 0  1 180
36  0 0 1 0 0 0 0 0 0 0  1 181
8  0 1 0 0 0 0 0 0 0 0  1 302
88  0 0 0 0 0 1 0 0 0 0  1 183
81  0 0 1 0 0 0 0 0 0 0  1 184
13  0 0 0 1 0 0 0 0 0 0  1 185
82  0 0 0 0 0 0 1 0 0 0  1 186
54  0 0 0 0 1 0 0 0 0 0  1 187
13  0 0 0 0 0 0 0 1 0 0  1 188
29  0 0 0 0 0 0 0 0 1 0  1 189
40  0 0 0 0 0 0 0 0 0 1  1 190
78  0 1 0 0 0 0 0 0 0 0  1 191
75  1 0 0 0 0 0 0 0 0 0  1 302
88  0 0 0 0 0 0 0 0 0 1  1 193
54  0 0 0 0 1 0 0 0 0 0  1 194
64  0 0 0 0 0 0 1 0 0 0  1 195
32  0 0 0 0 0 0 0 1 0 0  1 196
52  1 0 0 0 0 0 0 0 0 0  1 197
6  0 0 1 0 0 0 0 0 0 0  1 198
54  0 0 0 0 0 0 0 0 1 0  1 199
82  0 0 0 0 0 1 0 0 0 0  1 200
6  0 0 0 1 0 0 0 0 0 0  1 201
26  0 1 0 0 0 0 0 0 0 0  1 302
44  0 0 1 0 0 0 0 0 0 0  1 203
5  0 0 0 1 0 0 0 0 0 0  1 204
58  0 0 0 0 0 1 0 0 0 0  1 205
97  0 0 0 0 1 0 0 0 0 0  1 206
9  1 0 0 0 0 0 0 0 0 0  1 207
84  0 0 0 0 0 0 0 1 0 0  1 208
77  0 0 0 0 0 0 0 0 1 0  1 209
96  0 0 0 0 0 0 0 0 0 1  1 210
58  0 1 0 0 0 0 0 0 0 0  1 211
89  0 0 0 0 0 0 1 0 0 0  1 302
15  0 0 0 0 1 0 0 0 0 0  1 213
31  0 0 0 0 0 0 0 1 0 0  1 214
87  0 1 0 0 0 0 0 0 0 0  1 215
57  0 0 0 0 0 0 0 0 1 0  1 216
77  1 0 0 0 0 0 0 0 0 0  1 217
85  0 0 0 1 0 0 0 0 0 0  1 218
81  0 0 1 0 0 0 0 0 0 0  1 219
39  0 0 0 0 0 1 0 0 0 0  1 220
73  0 0 0 0 0 0 0 0 0 1  1 221
21  0 0 0 0 0 0 1 0 0 0  1 302
82  0 0 0 0 0 0 0 0 0 1  1 223
22  0 0 0 0 0 0 1 0 0 0  1 224
10  0 0 0 0 1 0 0 0 0 0  1 225
70  0 0 0 1 0 0 0 0 0 0  1 226
49  0 1 0 0 0 0 0 0 0 0  1 227
40  1 0 0 0 0 0 0 0 0 0  1 228
34  0 0 0 0 0 0 0 0 1 0  1 229
48  0 0 1 0 0 0 0 0 0 0  1 230
80  0 0 0 0 0 0 0 1 0 0  1 231
71  0 0 0 0 0 1 0 0 0 0  1 302
91  0 1 0 0 0 0 0 0 0 0  1 233
17  0 0 1 0 0 0 0 0 0 0  1 234
62  0 0 0 0 0 0 0 1 0 0  1 235
75  0 0 0 0 0 1 0 0 0 0  1 236
47  0 0 0 0 0 0 0 0 1 0  1 237
11  0 0 0 0 1 0 0 0 0 0  1 238
7  0 0 0 1 0 0 0 0 0 0  1 239
72  0 0 0 0 0 0 1 0 0 0  1 240
35  0 0 0 0 0 0 0 0 0 1  1 241
55  1 0 0 0 0 0 0 0 0 0  1 302
71  0 0 0 0 0 0 1 0 0 0  1 243
90  0 1 0 0 0 0 0 0 0 0  1 244
75  0 0 0 1 0 0 0 0 0 0  1 245
64  1 0 0 0 0 0 0 0 0 0  1 246
94  0 0 1 0 0 0 0 0 0 0  1 247
15  0 0 0 0 0 0 0 0 1 0  1 248
12  0 0 0 0 1 0 0 0 0 0  1 249
67  0 0 0 0 0 0 0 1 0 0  1 250
20  0 0 0 0 0 0 0 0 0 1  1 251
50  0 0 0 0 0 1 0 0 0 0  1 302
70  0 0 0 0 0 0 0 1 0 0  1 253
93  0 0 0 0 0 1 0 0 0 0  1 254
77  0 0 0 0 0 0 0 0 1 0  1 255
29  0 0 1 0 0 0 0 0 0 0  1 256
58  0 0 0 0 1 0 0 0 0 0  1 257
93  0 0 0 0 0 0 1 0 0 0  1 258
68  0 0 0 1 0 0 0 0 0 0  1 259
57  0 1 0 0 0 0 0 0 0 0  1 260
7  0 0 0 0 0 0 0 0 0 1  1 261
52  1 0 0 0 0 0 0 0 0 0  1 302
87  0 0 0 0 0 0 1 0 0 0  1 263
63  0 1 0 0 0 0 0 0 0 0  1 264
26  0 0 0 0 1 0 0 0 0 0  1 265
6  0 0 0 0 0 1 0 0 0 0  1 266
82  0 0 1 0 0 0 0 0 0 0  1 267
27  0 0 0 1 0 0 0 0 0 0  1 268
56  0 0 0 0 0 0 0 1 0 0  1 269
48  0 0 0 0 0 0 0 0 1 0  1 270
36  0 0 0 0 0 0 0 0 0 1  1 271
95  1 0 0 0 0 0 0 0 0 0  1 302
36  1 0 0 0 0 0 0 0 0 0  1 273
15  0 0 0 0 0 1 0 0 0 0  1 274
41  0 0 0 0 0 0 0 0 1 0  1 275
78  0 0 0 0 0 0 0 0 0 1  1 276
76  0 0 0 1 0 0 0 0 0 0  1 277
84  0 0 0 0 0 0 1 0 0 0  1 278
30  0 0 0 0 1 0 0 0 0 0  1 279
76  0 0 0 0 0 0 0 1 0 0  1 280
36  0 0 1 0 0 0 0 0 0 0  1 281
8  0 1 0 0 0 0 0 0 0 0  1 302
88  0 0 0 0 0 1 0 0 0 0  1 283
81  0 0 1 0 0 0 0 0 0 0  1 284
13  0 0 0 1 0 0 0 0 0 0  1 285
82  0 0 0 0 0 0 1 0 0 0  1 286
54  0 0 0 0 1 0 0 0 0 0  1 287
13  0 0 0 0 0 0 0 1 0 0  1 288
29  0 0 0 0 0 0 0 0 1 0  1 289
40  0 0 0 0 0 0 0 0 0 1  1 290
78  0 1 0 0 0 0 0 0 0 0  1 291
75  1 0 0 0 0 0 0 0 0 0  1 302
88  0 0 0 0 0 0 0 0 0 1  1 293
54  0 0 0 0 1 0 0 0 0 0  1 294
64  0 0 0 0 0 0 1 0 0 0  1 295
32  0 0 0 0 0 0 0 1 0 0  1 296
52  1 0 0 0 0 0 0 0 0 0  1 297
6  0 0 1 0 0 0 0 0 0 0  1 298
54  0 0 0 0 0 0 0 0 1 0  1 299
82  0 0 0 0 0 1 0 0 0 0  1 300
6  0 0 0 1 0 0 0 0 0 0  1 301
26  0 1 0 0 0 0 0 0 0 0  1 302
0  0 0 0 0 0 0 0 0 0 0  0
